qbf_easy_train/easy_5613_SAT.qdimacs
p cnf 26 64
a 24 18 3 0
e 1 2 4 5 6 7 8 9 10 11 12 13 14 15 16 17 19 20 21 22 23 25 26 0
-3 -1 0
-3 2 0
1 -2 3 0
-6 -4 0
-6 -5 0
4 5 6 0
-7 3 0
-7 6 0
-3 -6 7 0
8 -9 -10 0
-8 9 -10 0
8 9 10 0
-8 -9 10 0
-10 4 -11 0
10 -4 -11 0
-10 -4 11 0
10 4 11 0
12 -7 0
12 -11 0
7 11 -12 0
-13 -9 0
-13 9 0
15 3 0
15 14 0
-3 -14 -15 0
16 13 0
16 15 0
-13 -15 -16 0
18 14 0
18 17 0
-14 -17 -18 0
16 18 -19 0
-16 -18 -19 0
16 -18 19 0
-16 18 19 0
20 -12 0
20 19 0
12 -19 -20 0
-21 5 0
-21 -1 0
-5 1 21 0
-22 21 0
-22 9 0
-21 -9 22 0
23 9 0
23 9 0
-9 -23 0
-4 23 -24 0
4 -23 -24 0
-4 -23 24 0
4 23 24 0
25 22 0
25 -24 0
-22 24 -25 0
26 -20 0
26 25 0
20 -25 -26 0
-26 2 -12 -4 7 -1 0
-7 -5 -24 -23 -22 0
4 6 -16 23 -1 18 0
6 25 22 1 -18 13 -17 0
-9 -11 17 8 5 18 1 4 0
13 20 21 2 -23 12 0
26 0
