sat_easy_train/easy_5613_SAT.dimacs
p cnf 108 346
-2 3 0
2 3 0
5 -3 0
5 4 0
3 -4 -5 0
7 5 0
7 6 0
-5 -6 -7 0
-8 1 0
-8 7 0
-1 -7 8 0
-10 -9 0
-10 2 0
9 -2 10 0
13 11 0
13 12 0
-11 -12 -13 0
11 -13 -14 0
-11 13 -14 0
11 13 14 0
-11 -13 14 0
-10 14 -15 0
10 -14 -15 0
-10 -14 15 0
10 14 15 0
-16 -5 0
-16 15 0
5 -15 16 0
-19 -18 0
-19 -9 0
18 9 19 0
20 -9 0
20 -19 0
9 19 -20 0
20 18 -21 0
-20 -18 -21 0
20 -18 21 0
-20 18 21 0
22 17 0
22 -21 0
-17 21 -22 0
-23 16 0
-23 -22 0
-16 22 23 0
-24 8 0
-24 23 0
-8 -23 24 0
25 17 0
25 20 0
-17 -20 -25 0
26 -11 0
26 25 0
11 -25 -26 0
-28 -26 0
-28 -27 0
26 27 28 0
30 -25 0
30 -29 0
25 29 -30 0
13 -31 -32 0
-13 31 -32 0
13 31 32 0
-13 -31 32 0
-30 -32 -33 0
30 32 -33 0
-30 32 33 0
30 -32 33 0
34 28 0
34 -33 0
-28 33 -34 0
35 -10 -36 0
-35 10 -36 0
35 10 36 0
-35 -10 36 0
-31 -36 -37 0
31 36 -37 0
-31 36 37 0
31 -36 37 0
-38 29 0
-38 6 0
-29 -6 38 0
40 1 0
40 -29 0
-1 29 -40 0
41 -14 0
41 40 0
14 -40 -41 0
-42 39 0
-42 -41 0
-39 41 42 0
-43 38 0
-43 42 0
-38 -42 43 0
-44 9 0
-44 43 0
-9 -43 44 0
44 -12 -45 0
-44 12 -45 0
44 12 45 0
-44 -12 45 0
-46 -12 0
-46 -25 0
12 25 46 0
47 -1 0
47 -39 0
1 39 -47 0
48 47 0
48 -6 0
-47 6 -48 0
-49 -48 0
-49 35 0
48 -35 49 0
50 -46 0
50 -49 0
46 49 -50 0
-51 -50 0
-51 -25 0
50 25 51 0
-17 -51 -52 0
17 51 -52 0
-17 51 52 0
17 -51 52 0
-53 -29 0
-53 -12 0
29 12 53 0
-54 49 0
-54 -53 0
-49 53 54 0
-55 -52 0
-55 54 0
52 -54 55 0
56 45 0
56 55 0
-45 -55 -56 0
57 -37 0
57 56 0
37 -56 -57 0
58 34 0
58 57 0
-34 -57 -58 0
-59 24 0
-59 58 0
-24 -58 59 0
-35 -26 -60 0
35 26 -60 0
-35 26 60 0
35 -26 60 0
-12 31 -61 0
12 -31 -61 0
-12 -31 61 0
12 31 61 0
60 -61 -62 0
-60 61 -62 0
60 61 62 0
-60 -61 62 0
63 3 0
63 26 0
-3 -26 -63 0
64 -62 0
64 63 0
62 -63 -64 0
-65 49 0
-65 50 0
-49 -50 65 0
-64 65 -66 0
64 -65 -66 0
-64 -65 66 0
64 65 66 0
-67 -40 0
-67 -31 0
40 31 67 0
68 -42 -69 0
-68 42 -69 0
68 42 69 0
-68 -42 69 0
-70 -67 0
-70 -69 0
67 69 70 0
-71 -35 0
-71 53 0
35 -53 71 0
27 -29 -72 0
-27 29 -72 0
27 29 72 0
-27 -29 72 0
73 71 0
73 -72 0
-71 72 -73 0
31 -25 -74 0
-31 25 -74 0
31 25 74 0
-31 -25 74 0
73 74 -75 0
-73 -74 -75 0
73 -74 75 0
-73 74 75 0
76 70 0
76 -75 0
-70 75 -76 0
77 -13 0
77 40 0
13 -40 -77 0
78 76 0
78 -77 0
-76 77 -78 0
35 1 -79 0
-35 -1 -79 0
35 -1 79 0
-35 1 79 0
-29 -79 -80 0
29 79 -80 0
-29 79 80 0
29 -79 80 0
-81 -79 0
-81 -5 0
79 5 81 0
-82 80 0
-82 81 0
-80 -81 82 0
83 -78 0
83 82 0
78 -82 -83 0
-84 6 0
-84 17 0
-6 -17 84 0
85 -83 0
85 84 0
83 -84 -85 0
47 -11 -86 0
-47 11 -86 0
47 11 86 0
-47 -11 86 0
-10 -35 -87 0
10 35 -87 0
-10 35 87 0
10 -35 87 0
-88 86 0
-88 -87 0
-86 87 88 0
89 -2 0
89 -20 0
2 20 -89 0
90 88 0
90 -89 0
-88 89 -90 0
-91 4 0
-91 12 0
-4 -12 91 0
93 91 0
93 -92 0
-91 92 -93 0
94 48 0
94 31 0
-48 -31 -94 0
-95 -93 0
-95 -94 0
93 94 95 0
-96 90 0
-96 -95 0
-90 95 96 0
11 48 -97 0
-11 -48 -97 0
11 -48 97 0
-11 48 97 0
48 97 -98 0
-48 -97 -98 0
48 -97 98 0
-48 97 98 0
99 -91 0
99 26 0
91 -26 -99 0
-99 -53 -100 0
99 53 -100 0
-99 53 100 0
99 -53 100 0
-101 -98 0
-101 -100 0
98 100 101 0
-102 96 0
-102 -101 0
-96 101 102 0
27 12 -103 0
-27 -12 -103 0
27 -12 103 0
-27 12 103 0
-104 103 0
-104 94 0
-103 -94 104 0
-105 102 0
-105 -104 0
-102 104 105 0
-106 85 0
-106 -105 0
-85 105 106 0
-107 -66 0
-107 -106 0
66 106 107 0
108 59 0
108 -107 0
-59 107 -108 0
37 -97 -16 0
63 -98 -68 0
82 32 -71 0
69 12 66 -52 0
-82 -59 -6 90 0
92 -84 45 33 -100 0
-33 72 -6 101 -58 0
49 50 -23 0
80 0
66 108 0
-62 63 24 0
-9 -105 59 0
-23 -87 19 29 0
-81 -108 58 4 -34 32 0
67 40 -38 88 -21 0
76 22 -38 -94 -42 48 0
1 -54 78 26 0
108 75 0
32 -33 104 0
-32 11 28 27 101 0
25 -77 76 37 -67 0
108 -2 -46 0
-15 77 -28 57 59 0
-5 34 -32 0
-26 -108 -54 -83 98 0
-48 -5 58 32 50 0
93 -98 59 30 -9 0
-8 -15 99 -30 -44 0
108 73 0
-66 53 -41 85 96 0
19 -98 95 -69 85 0
84 -38 -80 -85 -87 0
-69 50 -74 -46 34 0
62 -95 5 0
84 5 0
107 -7 -64 0
12 -83 80 -33 -87 -76 0
70 17 -82 84 -29 0
49 -45 77 -34 -13 0
81 80 -40 0
-104 100 32 0
-16 0
-68 77 -80 23 -6 0
-93 -102 -57 29 -95 9 0
73 103 -62 -3 0
108 0
